\ This file has been generated by DOcplex
\ ENCODING=ISO-8859-1
\Problem name: Linear Optimization

Minimize
 obj: 90 x_0_0 + 80 x_0_1 + 75 x_0_2 + 70 x_0_3 + 35 x_1_0 + 85 x_1_1 + 55 x_1_2
      + 65 x_1_3 + 125 x_2_0 + 95 x_2_1 + 90 x_2_2 + 95 x_2_3 + 45 x_3_0
      + 110 x_3_1 + 95 x_3_2 + 115 x_3_3 + 50 x_4_0 + 100 x_4_1 + 90 x_4_2
      + 100 x_4_3
Subject To
 c1: x_0_0 + x_0_1 + x_0_2 + x_0_3 <= 1
 c2: x_1_0 + x_1_1 + x_1_2 + x_1_3 <= 1
 c3: x_2_0 + x_2_1 + x_2_2 + x_2_3 <= 1
 c4: x_3_0 + x_3_1 + x_3_2 + x_3_3 <= 1
 c5: x_4_0 + x_4_1 + x_4_2 + x_4_3 <= 1
 c6: x_0_0 + x_1_0 + x_2_0 + x_3_0 + x_4_0 = 1
 c7: x_0_1 + x_1_1 + x_2_1 + x_3_1 + x_4_1 = 1
 c8: x_0_2 + x_1_2 + x_2_2 + x_3_2 + x_4_2 = 1
 c9: x_0_3 + x_1_3 + x_2_3 + x_3_3 + x_4_3 = 1

Bounds
 0 <= x_0_0 <= 1
 0 <= x_0_1 <= 1
 0 <= x_0_2 <= 1
 0 <= x_0_3 <= 1
 0 <= x_1_0 <= 1
 0 <= x_1_1 <= 1
 0 <= x_1_2 <= 1
 0 <= x_1_3 <= 1
 0 <= x_2_0 <= 1
 0 <= x_2_1 <= 1
 0 <= x_2_2 <= 1
 0 <= x_2_3 <= 1
 0 <= x_3_0 <= 1
 0 <= x_3_1 <= 1
 0 <= x_3_2 <= 1
 0 <= x_3_3 <= 1
 0 <= x_4_0 <= 1
 0 <= x_4_1 <= 1
 0 <= x_4_2 <= 1
 0 <= x_4_3 <= 1

Binaries
 x_0_0 x_0_1 x_0_2 x_0_3 x_1_0 x_1_1 x_1_2 x_1_3 x_2_0 x_2_1 x_2_2 x_2_3 x_3_0
 x_3_1 x_3_2 x_3_3 x_4_0 x_4_1 x_4_2 x_4_3
End
